data;
param n:=100;
param w:=1 199 2 146 3 226 4 -400 5 -386 6 279 7 462 8 -305 9 143 10 -309 11 -193 12 -23 13 -16 14 7 15 -117 16 -246 17 81 18 12 19 -248 20 -344 21 372 22 -412 23 -390 24 -203 25 61 26 308 27 -193 28 446 29 -373 30 -110 31 -426 32 -343 33 26 34 -423 35 325 36 172 37 94 38 -455 39 326 40 57 41 173 42 324 43 -62 44 393 45 150 46 361 47 274 48 261 49 -114 50 32 51 -70 52 -37 53 -129 54 44 55 -16 56 249 57 -351 58 -395 59 -298 60 -448 61 251 62 146 63 -383 64 -436 65 35 66 -94 67 -464 68 292 69 290 70 -100 71 -81 72 182 73 -361 74 431 75 456 76 -85 77 399 78 -45 79 113 80 237 81 260 82 203 83 479 84 224 85 -456 86 396 87 -399 88 100 89 -236 90 -50 91 257 92 237 93 144 94 -98 95 -45 96 460 97 275 98 -370 99 -226 100 -106;
